c *********************************
c * Circuit generated by BenCGen
c *
c * RippleCarryAdderSubtractor_33_33_33_OutSunT
c *
c * Ports with 1 gate(s): 2
c * Ports with 2 gate(s): 200
c * Total gates: 202
c *********************************
p cnf 268 704
1 102 0
-1 -102 0
1 -101 0
102 -101 0
-1 -102 101 0
101 103 0
-101 -103 0
34 101 -104 0
-34 101 104 0
34 -101 104 0
-34 -101 -104 0
35 101 -105 0
-35 101 105 0
35 -101 105 0
-35 -101 -105 0
36 101 -106 0
-36 101 106 0
36 -101 106 0
-36 -101 -106 0
37 101 -107 0
-37 101 107 0
37 -101 107 0
-37 -101 -107 0
38 101 -108 0
-38 101 108 0
38 -101 108 0
-38 -101 -108 0
39 101 -109 0
-39 101 109 0
39 -101 109 0
-39 -101 -109 0
40 101 -110 0
-40 101 110 0
40 -101 110 0
-40 -101 -110 0
41 101 -111 0
-41 101 111 0
41 -101 111 0
-41 -101 -111 0
42 101 -112 0
-42 101 112 0
42 -101 112 0
-42 -101 -112 0
43 101 -113 0
-43 101 113 0
43 -101 113 0
-43 -101 -113 0
44 101 -114 0
-44 101 114 0
44 -101 114 0
-44 -101 -114 0
45 101 -115 0
-45 101 115 0
45 -101 115 0
-45 -101 -115 0
46 101 -116 0
-46 101 116 0
46 -101 116 0
-46 -101 -116 0
47 101 -117 0
-47 101 117 0
47 -101 117 0
-47 -101 -117 0
48 101 -118 0
-48 101 118 0
48 -101 118 0
-48 -101 -118 0
49 101 -119 0
-49 101 119 0
49 -101 119 0
-49 -101 -119 0
50 101 -120 0
-50 101 120 0
50 -101 120 0
-50 -101 -120 0
51 101 -121 0
-51 101 121 0
51 -101 121 0
-51 -101 -121 0
52 101 -122 0
-52 101 122 0
52 -101 122 0
-52 -101 -122 0
53 101 -123 0
-53 101 123 0
53 -101 123 0
-53 -101 -123 0
54 101 -124 0
-54 101 124 0
54 -101 124 0
-54 -101 -124 0
55 101 -125 0
-55 101 125 0
55 -101 125 0
-55 -101 -125 0
56 101 -126 0
-56 101 126 0
56 -101 126 0
-56 -101 -126 0
57 101 -127 0
-57 101 127 0
57 -101 127 0
-57 -101 -127 0
58 101 -128 0
-58 101 128 0
58 -101 128 0
-58 -101 -128 0
59 101 -129 0
-59 101 129 0
59 -101 129 0
-59 -101 -129 0
60 101 -130 0
-60 101 130 0
60 -101 130 0
-60 -101 -130 0
61 101 -131 0
-61 101 131 0
61 -101 131 0
-61 -101 -131 0
62 101 -132 0
-62 101 132 0
62 -101 132 0
-62 -101 -132 0
63 101 -133 0
-63 101 133 0
63 -101 133 0
-63 -101 -133 0
64 101 -134 0
-64 101 134 0
64 -101 134 0
-64 -101 -134 0
65 101 -135 0
-65 101 135 0
65 -101 135 0
-65 -101 -135 0
66 101 -136 0
-66 101 136 0
66 -101 136 0
-66 -101 -136 0
1 104 -138 0
-1 104 138 0
1 -104 138 0
-1 -104 -138 0
138 101 -67 0
-138 101 67 0
138 -101 67 0
-138 -101 -67 0
101 -139 0
138 -139 0
-101 -138 139 0
104 -140 0
1 -140 0
-104 -1 140 0
-139 137 0
-140 137 0
139 140 -137 0
2 105 -142 0
-2 105 142 0
2 -105 142 0
-2 -105 -142 0
142 137 -68 0
-142 137 68 0
142 -137 68 0
-142 -137 -68 0
137 -143 0
142 -143 0
-137 -142 143 0
105 -144 0
2 -144 0
-105 -2 144 0
-143 141 0
-144 141 0
143 144 -141 0
3 106 -146 0
-3 106 146 0
3 -106 146 0
-3 -106 -146 0
146 141 -69 0
-146 141 69 0
146 -141 69 0
-146 -141 -69 0
141 -147 0
146 -147 0
-141 -146 147 0
106 -148 0
3 -148 0
-106 -3 148 0
-147 145 0
-148 145 0
147 148 -145 0
4 107 -150 0
-4 107 150 0
4 -107 150 0
-4 -107 -150 0
150 145 -70 0
-150 145 70 0
150 -145 70 0
-150 -145 -70 0
145 -151 0
150 -151 0
-145 -150 151 0
107 -152 0
4 -152 0
-107 -4 152 0
-151 149 0
-152 149 0
151 152 -149 0
5 108 -154 0
-5 108 154 0
5 -108 154 0
-5 -108 -154 0
154 149 -71 0
-154 149 71 0
154 -149 71 0
-154 -149 -71 0
149 -155 0
154 -155 0
-149 -154 155 0
108 -156 0
5 -156 0
-108 -5 156 0
-155 153 0
-156 153 0
155 156 -153 0
6 109 -158 0
-6 109 158 0
6 -109 158 0
-6 -109 -158 0
158 153 -72 0
-158 153 72 0
158 -153 72 0
-158 -153 -72 0
153 -159 0
158 -159 0
-153 -158 159 0
109 -160 0
6 -160 0
-109 -6 160 0
-159 157 0
-160 157 0
159 160 -157 0
7 110 -162 0
-7 110 162 0
7 -110 162 0
-7 -110 -162 0
162 157 -73 0
-162 157 73 0
162 -157 73 0
-162 -157 -73 0
157 -163 0
162 -163 0
-157 -162 163 0
110 -164 0
7 -164 0
-110 -7 164 0
-163 161 0
-164 161 0
163 164 -161 0
8 111 -166 0
-8 111 166 0
8 -111 166 0
-8 -111 -166 0
166 161 -74 0
-166 161 74 0
166 -161 74 0
-166 -161 -74 0
161 -167 0
166 -167 0
-161 -166 167 0
111 -168 0
8 -168 0
-111 -8 168 0
-167 165 0
-168 165 0
167 168 -165 0
9 112 -170 0
-9 112 170 0
9 -112 170 0
-9 -112 -170 0
170 165 -75 0
-170 165 75 0
170 -165 75 0
-170 -165 -75 0
165 -171 0
170 -171 0
-165 -170 171 0
112 -172 0
9 -172 0
-112 -9 172 0
-171 169 0
-172 169 0
171 172 -169 0
10 113 -174 0
-10 113 174 0
10 -113 174 0
-10 -113 -174 0
174 169 -76 0
-174 169 76 0
174 -169 76 0
-174 -169 -76 0
169 -175 0
174 -175 0
-169 -174 175 0
113 -176 0
10 -176 0
-113 -10 176 0
-175 173 0
-176 173 0
175 176 -173 0
11 114 -178 0
-11 114 178 0
11 -114 178 0
-11 -114 -178 0
178 173 -77 0
-178 173 77 0
178 -173 77 0
-178 -173 -77 0
173 -179 0
178 -179 0
-173 -178 179 0
114 -180 0
11 -180 0
-114 -11 180 0
-179 177 0
-180 177 0
179 180 -177 0
12 115 -182 0
-12 115 182 0
12 -115 182 0
-12 -115 -182 0
182 177 -78 0
-182 177 78 0
182 -177 78 0
-182 -177 -78 0
177 -183 0
182 -183 0
-177 -182 183 0
115 -184 0
12 -184 0
-115 -12 184 0
-183 181 0
-184 181 0
183 184 -181 0
13 116 -186 0
-13 116 186 0
13 -116 186 0
-13 -116 -186 0
186 181 -79 0
-186 181 79 0
186 -181 79 0
-186 -181 -79 0
181 -187 0
186 -187 0
-181 -186 187 0
116 -188 0
13 -188 0
-116 -13 188 0
-187 185 0
-188 185 0
187 188 -185 0
14 117 -190 0
-14 117 190 0
14 -117 190 0
-14 -117 -190 0
190 185 -80 0
-190 185 80 0
190 -185 80 0
-190 -185 -80 0
185 -191 0
190 -191 0
-185 -190 191 0
117 -192 0
14 -192 0
-117 -14 192 0
-191 189 0
-192 189 0
191 192 -189 0
15 118 -194 0
-15 118 194 0
15 -118 194 0
-15 -118 -194 0
194 189 -81 0
-194 189 81 0
194 -189 81 0
-194 -189 -81 0
189 -195 0
194 -195 0
-189 -194 195 0
118 -196 0
15 -196 0
-118 -15 196 0
-195 193 0
-196 193 0
195 196 -193 0
16 119 -198 0
-16 119 198 0
16 -119 198 0
-16 -119 -198 0
198 193 -82 0
-198 193 82 0
198 -193 82 0
-198 -193 -82 0
193 -199 0
198 -199 0
-193 -198 199 0
119 -200 0
16 -200 0
-119 -16 200 0
-199 197 0
-200 197 0
199 200 -197 0
17 120 -202 0
-17 120 202 0
17 -120 202 0
-17 -120 -202 0
202 197 -83 0
-202 197 83 0
202 -197 83 0
-202 -197 -83 0
197 -203 0
202 -203 0
-197 -202 203 0
120 -204 0
17 -204 0
-120 -17 204 0
-203 201 0
-204 201 0
203 204 -201 0
18 121 -206 0
-18 121 206 0
18 -121 206 0
-18 -121 -206 0
206 201 -84 0
-206 201 84 0
206 -201 84 0
-206 -201 -84 0
201 -207 0
206 -207 0
-201 -206 207 0
121 -208 0
18 -208 0
-121 -18 208 0
-207 205 0
-208 205 0
207 208 -205 0
19 122 -210 0
-19 122 210 0
19 -122 210 0
-19 -122 -210 0
210 205 -85 0
-210 205 85 0
210 -205 85 0
-210 -205 -85 0
205 -211 0
210 -211 0
-205 -210 211 0
122 -212 0
19 -212 0
-122 -19 212 0
-211 209 0
-212 209 0
211 212 -209 0
20 123 -214 0
-20 123 214 0
20 -123 214 0
-20 -123 -214 0
214 209 -86 0
-214 209 86 0
214 -209 86 0
-214 -209 -86 0
209 -215 0
214 -215 0
-209 -214 215 0
123 -216 0
20 -216 0
-123 -20 216 0
-215 213 0
-216 213 0
215 216 -213 0
21 124 -218 0
-21 124 218 0
21 -124 218 0
-21 -124 -218 0
218 213 -87 0
-218 213 87 0
218 -213 87 0
-218 -213 -87 0
213 -219 0
218 -219 0
-213 -218 219 0
124 -220 0
21 -220 0
-124 -21 220 0
-219 217 0
-220 217 0
219 220 -217 0
22 125 -222 0
-22 125 222 0
22 -125 222 0
-22 -125 -222 0
222 217 -88 0
-222 217 88 0
222 -217 88 0
-222 -217 -88 0
217 -223 0
222 -223 0
-217 -222 223 0
125 -224 0
22 -224 0
-125 -22 224 0
-223 221 0
-224 221 0
223 224 -221 0
23 126 -226 0
-23 126 226 0
23 -126 226 0
-23 -126 -226 0
226 221 -89 0
-226 221 89 0
226 -221 89 0
-226 -221 -89 0
221 -227 0
226 -227 0
-221 -226 227 0
126 -228 0
23 -228 0
-126 -23 228 0
-227 225 0
-228 225 0
227 228 -225 0
24 127 -230 0
-24 127 230 0
24 -127 230 0
-24 -127 -230 0
230 225 -90 0
-230 225 90 0
230 -225 90 0
-230 -225 -90 0
225 -231 0
230 -231 0
-225 -230 231 0
127 -232 0
24 -232 0
-127 -24 232 0
-231 229 0
-232 229 0
231 232 -229 0
25 128 -234 0
-25 128 234 0
25 -128 234 0
-25 -128 -234 0
234 229 -91 0
-234 229 91 0
234 -229 91 0
-234 -229 -91 0
229 -235 0
234 -235 0
-229 -234 235 0
128 -236 0
25 -236 0
-128 -25 236 0
-235 233 0
-236 233 0
235 236 -233 0
26 129 -238 0
-26 129 238 0
26 -129 238 0
-26 -129 -238 0
238 233 -92 0
-238 233 92 0
238 -233 92 0
-238 -233 -92 0
233 -239 0
238 -239 0
-233 -238 239 0
129 -240 0
26 -240 0
-129 -26 240 0
-239 237 0
-240 237 0
239 240 -237 0
27 130 -242 0
-27 130 242 0
27 -130 242 0
-27 -130 -242 0
242 237 -93 0
-242 237 93 0
242 -237 93 0
-242 -237 -93 0
237 -243 0
242 -243 0
-237 -242 243 0
130 -244 0
27 -244 0
-130 -27 244 0
-243 241 0
-244 241 0
243 244 -241 0
28 131 -246 0
-28 131 246 0
28 -131 246 0
-28 -131 -246 0
246 241 -94 0
-246 241 94 0
246 -241 94 0
-246 -241 -94 0
241 -247 0
246 -247 0
-241 -246 247 0
131 -248 0
28 -248 0
-131 -28 248 0
-247 245 0
-248 245 0
247 248 -245 0
29 132 -250 0
-29 132 250 0
29 -132 250 0
-29 -132 -250 0
250 245 -95 0
-250 245 95 0
250 -245 95 0
-250 -245 -95 0
245 -251 0
250 -251 0
-245 -250 251 0
132 -252 0
29 -252 0
-132 -29 252 0
-251 249 0
-252 249 0
251 252 -249 0
30 133 -254 0
-30 133 254 0
30 -133 254 0
-30 -133 -254 0
254 249 -96 0
-254 249 96 0
254 -249 96 0
-254 -249 -96 0
249 -255 0
254 -255 0
-249 -254 255 0
133 -256 0
30 -256 0
-133 -30 256 0
-255 253 0
-256 253 0
255 256 -253 0
31 134 -258 0
-31 134 258 0
31 -134 258 0
-31 -134 -258 0
258 253 -97 0
-258 253 97 0
258 -253 97 0
-258 -253 -97 0
253 -259 0
258 -259 0
-253 -258 259 0
134 -260 0
31 -260 0
-134 -31 260 0
-259 257 0
-260 257 0
259 260 -257 0
32 135 -262 0
-32 135 262 0
32 -135 262 0
-32 -135 -262 0
262 257 -98 0
-262 257 98 0
262 -257 98 0
-262 -257 -98 0
257 -263 0
262 -263 0
-257 -262 263 0
135 -264 0
32 -264 0
-135 -32 264 0
-263 261 0
-264 261 0
263 264 -261 0
33 136 -266 0
-33 136 266 0
33 -136 266 0
-33 -136 -266 0
266 261 -99 0
-266 261 99 0
266 -261 99 0
-266 -261 -99 0
261 -267 0
266 -267 0
-261 -266 267 0
136 -268 0
33 -268 0
-136 -33 268 0
-267 265 0
-268 265 0
267 268 -265 0
265 101 -100 0
-265 101 100 0
265 -101 100 0
-265 -101 -100 0
